(declare-fun temp710_2 () (_ BitVec 64))
(declare-fun temp710_1 () (_ BitVec 64))
(declare-fun temp710_4 () (_ BitVec 64))
(declare-fun temp710_3 () (_ BitVec 64))
(declare-fun temp710_5 () (_ BitVec 64))
(declare-fun var335690 () (_ BitVec 64))
(declare-fun temp710_6 () (_ BitVec 64))
(declare-fun var3737398 () (_ BitVec 64))
(declare-fun var3936476 () (_ BitVec 64))
(declare-fun temp710_7 () (_ BitVec 64))
(declare-fun var4720619 () (_ BitVec 64))
(declare-fun ARGNAME_input_NAMEEND_DIM () (_ BitVec 64))
(declare-fun temp710_9 () (_ BitVec 64))
(declare-fun temp710_8 () (_ BitVec 64))
(declare-fun var4787063 () (_ BitVec 64))
(declare-fun temp710_10 () (_ BitVec 64))
(declare-fun var4853512 () (_ BitVec 64))
(declare-fun var4919057 () (_ BitVec 64))
(declare-fun temp710_12 () (_ BitVec 64))
(declare-fun temp710_11 () (_ BitVec 64))
(declare-fun temp710_13 () (_ BitVec 64))
(declare-fun var5115639 () (_ BitVec 64))
(declare-fun temp710_14 () (_ BitVec 64))
(declare-fun var4720680 () (_ BitVec 64))
(declare-fun temp710_15 () (_ BitVec 64))
(declare-fun var4720722 () (_ BitVec 64))
(declare-fun temp710_17 () (_ BitVec 64))
(declare-fun temp710_16 () (_ BitVec 64))
(declare-fun temp710_18 () (_ BitVec 64))
(declare-fun var5704696 () (_ BitVec 64))
(declare-fun temp710_19 () (_ BitVec 64))
(declare-fun var5704746 () (_ BitVec 64))
(declare-fun temp710_20 () (_ BitVec 64))
(declare-fun var4720667 () (_ BitVec 64))
(declare-fun var4720666 () (_ BitVec 64))
(declare-fun temp710_21 () (_ BitVec 64))
(declare-fun var4720671 () (_ BitVec 64))
(declare-fun temp710_22 () (_ BitVec 64))
(declare-fun var4720673 () (_ BitVec 64))
(declare-fun temp710_23 () (_ BitVec 64))
(declare-fun temp710_24 () (_ BitVec 64))
(declare-fun var6884506 () (_ BitVec 64))
(declare-fun temp710_25 () (_ BitVec 64))
(declare-fun var7276750 () (_ BitVec 64))
(declare-fun temp710_26 () (_ BitVec 64))
(declare-fun var7276827 () (_ BitVec 64))
(declare-fun var7276748 () (_ BitVec 64))
(declare-fun var270533 () (_ BitVec 64))
(declare-fun var270534 () (_ BitVec 64))
(declare-fun temp710_27 () (_ BitVec 64))
(declare-fun var9311559 () (_ BitVec 64))
(declare-fun var9311563 () (_ BitVec 64))
(assert (= temp710_2 #x0000000000000000))
(assert (= temp710_1 temp710_2))
(assert (= temp710_4 #x0000000000000000))
(assert (= temp710_3 temp710_4))
(assert (= temp710_5 #x0000000000000005))
(assert (= var335690 temp710_5))
(assert (= temp710_6 #x0000000000000001))
(assert (= var3737398 temp710_6))
(assert (= var3936476 var3737398))
(assert (= temp710_7 #x0000000000000001))
(assert (= var4720619 (bvshl ARGNAME_input_NAMEEND_DIM temp710_7)))
(assert (= temp710_9 #x0000000000000000))
(assert (= temp710_8 temp710_9))
(assert (= var4787063 var4720619))
(assert (= temp710_10 #x0000000000000005))
(assert (= var4853512 temp710_10))
(assert (= var4919057 var4787063))
(assert (= temp710_12 #x0000000000000000))
(assert (= temp710_11 temp710_12))
(assert (= temp710_13 #x0000000000000000))
(assert (= var5115639 temp710_13))
(assert (= temp710_14 #x0000000000000000))
(assert (= var4720680 temp710_14))
(assert (= temp710_15 #x0000000000000001))
(assert (= var4720722 temp710_15))
(assert (= temp710_17 #x0000000000000000))
(assert (= temp710_16 temp710_17))
(assert (= temp710_18 #x0000000000000001))
(assert (= var5704696 temp710_18))
(assert (= temp710_19 #x0000000000000000))
(assert (= var5704746 temp710_19))
(assert (= temp710_20 #x0000000000000000))
(assert (= var5704746 temp710_20))
(assert (= var4720667 var4720722))
(assert (= var4720666 var4720667))
(assert (= temp710_21 #x0000000000000001))
(assert (= var4720671 (bvand var4720666 temp710_21)))
(assert (= temp710_22 #x0000000000000000))
(assert (= var4720673
   (ite (= var4720671 temp710_22) #x0000000000000001 #x0000000000000000)))
(assert (= temp710_23 #x0000000000000000))
(assert (= var4720673 temp710_23))
(assert (= temp710_24 #x0000000000000000))
(assert (= var6884506 temp710_24))
(assert (= temp710_25 #x0000000000000001))
(assert (= var7276750 temp710_25))
(assert (= temp710_26 #x0000000000000001))
(assert (= var7276827 temp710_26))
(assert (= var7276748 var7276827))
(assert (= var270533 var7276748))
(assert (= var270534 var270533))
(assert (= temp710_27 #x0000000000000005))
(assert (= var9311559 temp710_27))
(assert (= var9311563 var270534))
(model-add temp710_2 () (_ BitVec 64) #x0000000000000000)
(model-add temp710_1 () (_ BitVec 64) #x0000000000000000)
(model-add temp710_4 () (_ BitVec 64) #x0000000000000000)
(model-add temp710_3 () (_ BitVec 64) #x0000000000000000)
(model-add temp710_5 () (_ BitVec 64) #x0000000000000005)
(model-add var335690 () (_ BitVec 64) #x0000000000000005)
(model-add temp710_6 () (_ BitVec 64) #x0000000000000001)
(model-add var3737398 () (_ BitVec 64) #x0000000000000001)
(model-add var3936476 () (_ BitVec 64) #x0000000000000001)
(model-add temp710_7 () (_ BitVec 64) #x0000000000000001)
(model-add var4720619
           ()
           (_ BitVec 64)
           (concat ((_ extract 62 0) ARGNAME_input_NAMEEND_DIM) #b0))
(model-add temp710_9 () (_ BitVec 64) #x0000000000000000)
(model-add temp710_8 () (_ BitVec 64) #x0000000000000000)
(model-add var4787063
           ()
           (_ BitVec 64)
           (concat ((_ extract 62 0) ARGNAME_input_NAMEEND_DIM) #b0))
(model-add temp710_10 () (_ BitVec 64) #x0000000000000005)
(model-add var4853512 () (_ BitVec 64) #x0000000000000005)
(model-add var4919057
           ()
           (_ BitVec 64)
           (concat ((_ extract 62 0) ARGNAME_input_NAMEEND_DIM) #b0))
(model-add temp710_12 () (_ BitVec 64) #x0000000000000000)
(model-add temp710_11 () (_ BitVec 64) #x0000000000000000)
(model-add temp710_13 () (_ BitVec 64) #x0000000000000000)
(model-add var5115639 () (_ BitVec 64) #x0000000000000000)
(model-add temp710_14 () (_ BitVec 64) #x0000000000000000)
(model-add var4720680 () (_ BitVec 64) #x0000000000000000)
(model-add temp710_15 () (_ BitVec 64) #x0000000000000001)
(model-add var4720722 () (_ BitVec 64) #x0000000000000001)
(model-add temp710_17 () (_ BitVec 64) #x0000000000000000)
(model-add temp710_16 () (_ BitVec 64) #x0000000000000000)
(model-add temp710_18 () (_ BitVec 64) #x0000000000000001)
(model-add var5704696 () (_ BitVec 64) #x0000000000000001)
(model-add temp710_19 () (_ BitVec 64) #x0000000000000000)
(model-add var5704746 () (_ BitVec 64) #x0000000000000000)
(model-add temp710_20 () (_ BitVec 64) #x0000000000000000)




